50
    64    13     5    36    89    84    43   100    42     8    32    58     9    39    52    23    92    73    49    97     6    46    37    74    84    35    91    40    74    57    55    68    38    70    38    26    57    72    14    68    24     2    23    43    49    41    70    87    60     9
     5     5    10     1    10     7     4     4     9     1     3     8     2     3     4     5    10     9     4     5     3     8    10     4     3     1     8     6     8     2     5    10     9     5     5     5     4     9     4     6     4     4     8     5     5     1     1     2     8     4
     0   585     0     0  1126   831   382     0     0     0   920     0     0   567     0  1070   814   863   554   706  1018  1024  1153     0    64     0   837     0     0     0  1131   652   565     0     0   956   744     0     0   105     0     0     0     0     0     0   706     0     0   703
